\ Model Filtración_copy
\ LP format - for model browsing. Use MPS format to capture full model detail.
Minimize
 
Subject To
 R6_0_11: - H[0,10] + H[0,11] + 777600 Q[11] - 7.776e+06 S[11]
   = 388808.4759999961
 R6_0_48: - H[0,47] + H[0,48] + 777600 Q[48] - 7.776e+06 S[48]
   = 388808.8759999871
 R6_0_53: - H[0,52] + H[0,53] + 777600 Q[53] - 7.776e+06 S[53]
   = 388808.675999999
 R6_0_56: - H[0,55] + H[0,56] + 777600 Q[56] - 7.776e+06 S[56]
   = 388808.3759999871
 R6_0_64: - H[0,63] + H[0,64] + 777600 Q[64] - 7.776e+06 S[64]
   = 388809.175999999
 R6_0_65: - H[0,64] + H[0,65] + 777600 Q[65] - 7.776e+06 S[65]
   = 388807.8759999871
 R6_0_67: - H[0,66] + H[0,67] + 777600 Q[67] - 7.776e+06 S[67]
   = 388809.3759999871
 R6_0_68: - H[0,67] + H[0,68] + 777600 Q[68] - 7.776e+06 S[68]
   = 388815.9759999961
 R6_0_78: - H[0,77] + H[0,78] + 777600 Q[78] - 7.776e+06 S[78]
   = 388809.3759999871
 R6_0_79: - H[0,78] + H[0,79] + 777600 Q[79] - 7.776e+06 S[79]
   = 388808.3759999871
 R6_0_88: - H[0,87] + H[0,88] + 777600 Q[88] - 7.776e+06 S[88]
   = 388810.675999999
 R6_0_115: - H[0,114] + H[0,115] + 777600 Q[115] - 7.776e+06 S[115]
   = 388809.0759999901
 R6_0_118: - H[0,117] + H[0,118] + 777600 Q[118] - 7.776e+06 S[118]
   = 388808.4759999961
 R6_0_122: - H[0,121] + H[0,122] + 777600 Q[122] - 7.776e+06 S[122]
   = 388809.175999999
 R6_0_131: - H[0,130] + H[0,131] + 777600 Q[131] - 7.776e+06 S[131]
   = 388811.7759999931
 R6_0_139: - H[0,138] + H[0,139] + 777600 Q[139] - 7.776e+06 S[139]
   = 388810.3759999871
 R6_0_140: - H[0,139] + H[0,140] + 777600 Q[140] - 7.776e+06 S[140]
   = 388813.675999999
 R6_0_143: - H[0,142] + H[0,143] + 777600 Q[143] - 7.776e+06 S[143]
   = 388815.4759999961
 R6_0_150: - H[0,149] + H[0,150] + 777600 Q[150] - 7.776e+06 S[150]
   = 388819.2759999931
 R6_0_152: - H[0,151] + H[0,152] + 777600 Q[152] - 7.776e+06 S[152]
   = 388811.2759999931
 R6_0_158: - H[0,157] + H[0,158] + 777600 Q[158] - 7.776e+06 S[158]
   = 388814.175999999
 R6_0_162: - H[0,161] + H[0,162] + 777600 Q[162] - 7.776e+06 S[162]
   = 388813.7759999931
 R6_0_220: - H[0,219] + H[0,220] + 777600 Q[220] - 7.776e+06 S[220]
   = 388817.0759999901
 R6_0_226: - H[0,225] + H[0,226] + 777600 Q[226] - 7.776e+06 S[226]
   = 388814.175999999
 R6_0_248: - H[0,247] + H[0,248] + 777600 Q[248] - 7.776e+06 S[248]
   = 388813.3759999871
 R6_0_256: - H[0,255] + H[0,256] + 777600 Q[256] - 7.776e+06 S[256]
   = 388814.0759999901
 R6_0_265: - H[0,264] + H[0,265] + 777600 Q[265] - 7.776e+06 S[265]
   = 388816.175999999
 R6_0_278: - H[0,277] + H[0,278] + 777600 Q[278] - 7.776e+06 S[278]
   = 388809.0759999901
 R6_0_283: - H[0,282] + H[0,283] + 777600 Q[283] - 7.776e+06 S[283]
   = 388809.3759999871
 R6_0_295: - H[0,294] + H[0,295] + 777600 Q[295] - 7.776e+06 S[295]
   = 388810.0759999901
 R6_0_299: - H[0,298] + H[0,299] + 777600 Q[299] - 7.776e+06 S[299]
   = 388816.2759999931
 R6_0_312: - H[0,311] + H[0,312] + 777600 Q[312] - 7.776e+06 S[312]
   = 388809.2759999931
 R6_0_343: - H[0,342] + H[0,343] + 777600 Q[343] - 7.776e+06 S[343]
   = 388808.675999999
 R6_1_36: - H[1,35] + H[1,36] + 777600 Q[36] - 7.776e+06 S[36]
   = 388808.3759999871
 R6_1_46: - H[1,45] + H[1,46] + 777600 Q[46] - 7.776e+06 S[46]
   = 388808.3759999871
 R6_1_62: - H[1,61] + H[1,62] + 777600 Q[62] - 7.776e+06 S[62]
   = 388809.8759999871
 R6_1_77: - H[1,76] + H[1,77] + 777600 Q[77] - 7.776e+06 S[77]
   = 388807.9759999961
 R6_1_87: - H[1,86] + H[1,87] + 777600 Q[87] - 7.776e+06 S[87]
   = 388809.675999999
 R6_1_102: - H[1,101] + H[1,102] + 777600 Q[102] - 7.776e+06 S[102]
   = 388809.175999999
 R6_1_180: - H[1,179] + H[1,180] + 777600 Q[180] - 7.776e+06 S[180]
   = 388815.0759999901
 R6_1_202: - H[1,201] + H[1,202] + 777600 Q[202] - 7.776e+06 S[202]
   = 388829.9759999961
 R6_1_203: - H[1,202] + H[1,203] + 777600 Q[203] - 7.776e+06 S[203]
   = 388812.7759999931
 R6_1_207: - H[1,206] + H[1,207] + 777600 Q[207] - 7.776e+06 S[207]
   = 388808.9759999961
 R6_1_227: - H[1,226] + H[1,227] + 777600 Q[227] - 7.776e+06 S[227]
   = 388814.175999999
 R6_1_233: - H[1,232] + H[1,233] + 777600 Q[233] - 7.776e+06 S[233]
   = 388808.7759999931
 R6_1_252: - H[1,251] + H[1,252] + 777600 Q[252] - 7.776e+06 S[252]
   = 388813.675999999
 R6_1_281: - H[1,280] + H[1,281] + 777600 Q[281] - 7.776e+06 S[281]
   = 388808.7759999931
 R6_1_299: - H[1,298] + H[1,299] + 777600 Q[299] - 7.776e+06 S[299]
   = 388816.2759999931
 R6_1_303: - H[1,302] + H[1,303] + 777600 Q[303] - 7.776e+06 S[303]
   = 388809.675999999
 R6_1_313: - H[1,312] + H[1,313] + 777600 Q[313] - 7.776e+06 S[313]
   = 388809.175999999
 R6_1_332: - H[1,331] + H[1,332] + 777600 Q[332] - 7.776e+06 S[332]
   = 388809.5759999901
 R6_1_342: - H[1,341] + H[1,342] + 777600 Q[342] - 7.776e+06 S[342]
   = 388809.2759999931
 R6_1_356: - H[1,355] + H[1,356] + 777600 Q[356] - 7.776e+06 S[356]
   = 388807.7759999931
 R6_1_359: - H[1,358] + H[1,359] + 777600 Q[359] - 7.776e+06 S[359]
   = 388807.9759999961
 R6_2_59: - H[2,58] + H[2,59] + 777600 Q[59] - 7.776e+06 S[59]
   = 388808.0759999901
 R6_2_63: - H[2,62] + H[2,63] + 777600 Q[63] - 7.776e+06 S[63]
   = 388809.675999999
 R6_2_70: - H[2,69] + H[2,70] + 777600 Q[70] - 7.776e+06 S[70]
   = 388809.7759999931
 R6_2_108: - H[2,107] + H[2,108] + 777600 Q[108] - 7.776e+06 S[108]
   = 388808.9759999961
 R6_2_120: - H[2,119] + H[2,120] + 777600 Q[120] - 7.776e+06 S[120]
   = 388813.5759999901
 R6_2_154: - H[2,153] + H[2,154] + 777600 Q[154] - 7.776e+06 S[154]
   = 388821.5759999901
 R6_2_165: - H[2,164] + H[2,165] + 777600 Q[165] - 7.776e+06 S[165]
   = 388827.4759999961
 R6_2_171: - H[2,170] + H[2,171] + 777600 Q[171] - 7.776e+06 S[171]
   = 388812.8759999871
 R6_2_174: - H[2,173] + H[2,174] + 777600 Q[174] - 7.776e+06 S[174]
   = 388819.3759999871
 R6_2_184: - H[2,183] + H[2,184] + 777600 Q[184] - 7.776e+06 S[184]
   = 388812.9759999961
 R6_2_194: - H[2,193] + H[2,194] + 777600 Q[194] - 7.776e+06 S[194]
   = 388819.175999999
 R6_2_196: - H[2,195] + H[2,196] + 777600 Q[196] - 7.776e+06 S[196]
   = 388812.175999999
 R6_2_215: - H[2,214] + H[2,215] + 777600 Q[215] - 7.776e+06 S[215]
   = 388812.2759999931
 R6_2_296: - H[2,295] + H[2,296] + 777600 Q[296] - 7.776e+06 S[296]
   = 388808.9759999961
 R6_2_321: - H[2,320] + H[2,321] + 777600 Q[321] - 7.776e+06 S[321]
   = 388810.5759999901
 R6_2_324: - H[2,323] + H[2,324] + 777600 Q[324] - 7.776e+06 S[324]
   = 388809.0759999901
 R6_2_362: - H[2,361] + H[2,362] + 777600 Q[362] - 7.776e+06 S[362]
   = 388808.3759999871
 R6_3_33: - H[3,32] + H[3,33] + 777600 Q[33] - 7.776e+06 S[33]
   = 388809.675999999
 R6_3_55: - H[3,54] + H[3,55] + 777600 Q[55] - 7.776e+06 S[55]
   = 388808.175999999
 R6_3_94: - H[3,93] + H[3,94] + 777600 Q[94] - 7.776e+06 S[94]
   = 388809.2759999931
 R6_3_165: - H[3,164] + H[3,165] + 777600 Q[165] - 7.776e+06 S[165]
   = 388827.4759999961
 R6_3_167: - H[3,166] + H[3,167] + 777600 Q[167] - 7.776e+06 S[167]
   = 388815.4759999961
 R6_3_226: - H[3,225] + H[3,226] + 777600 Q[226] - 7.776e+06 S[226]
   = 388814.175999999
 R6_3_235: - H[3,234] + H[3,235] + 777600 Q[235] - 7.776e+06 S[235]
   = 388809.8759999871
 R6_3_269: - H[3,268] + H[3,269] + 777600 Q[269] - 7.776e+06 S[269]
   = 388809.9759999961
 R6_3_288: - H[3,287] + H[3,288] + 777600 Q[288] - 7.776e+06 S[288]
   = 388810.5759999901
 R6_3_307: - H[3,306] + H[3,307] + 777600 Q[307] - 7.776e+06 S[307]
   = 388808.675999999
 R6_3_335: - H[3,334] + H[3,335] + 777600 Q[335] - 7.776e+06 S[335]
   = 388809.8759999871
 R6_4_43: - H[4,42] + H[4,43] + 777600 Q[43] - 7.776e+06 S[43]
   = 388808.5759999901
 R6_4_44: - H[4,43] + H[4,44] + 777600 Q[44] - 7.776e+06 S[44]
   = 388810.4759999961
 R6_4_45: - H[4,44] + H[4,45] + 777600 Q[45] - 7.776e+06 S[45]
   = 388808.675999999
 R6_4_46: - H[4,45] + H[4,46] + 777600 Q[46] - 7.776e+06 S[46]
   = 388808.3759999871
 R6_4_47: - H[4,46] + H[4,47] + 777600 Q[47] - 7.776e+06 S[47]
   = 388808.4759999961
 R6_4_49: - H[4,48] + H[4,49] + 777600 Q[49] - 7.776e+06 S[49]
   = 388808.175999999
 R6_4_50: - H[4,49] + H[4,50] + 777600 Q[50] - 7.776e+06 S[50]
   = 388808.2759999931
 R6_4_52: - H[4,51] + H[4,52] + 777600 Q[52] - 7.776e+06 S[52]
   = 388808.8759999871
 R6_4_54: - H[4,53] + H[4,54] + 777600 Q[54] - 7.776e+06 S[54]
   = 388809.5759999901
 R6_4_55: - H[4,54] + H[4,55] + 777600 Q[55] - 7.776e+06 S[55]
   = 388808.175999999
 R6_4_56: - H[4,55] + H[4,56] + 777600 Q[56] - 7.776e+06 S[56]
   = 388808.3759999871
 R6_4_58: - H[4,57] + H[4,58] + 777600 Q[58] - 7.776e+06 S[58]
   = 388808.8759999871
 R6_4_59: - H[4,58] + H[4,59] + 777600 Q[59] - 7.776e+06 S[59]
   = 388808.0759999901
 R6_4_61: - H[4,60] + H[4,61] + 777600 Q[61] - 7.776e+06 S[61]
   = 388809.0759999901
 R6_4_62: - H[4,61] + H[4,62] + 777600 Q[62] - 7.776e+06 S[62]
   = 388809.8759999871
 R6_4_68: - H[4,67] + H[4,68] + 777600 Q[68] - 7.776e+06 S[68]
   = 388815.9759999961
 R6_4_69: - H[4,68] + H[4,69] + 777600 Q[69] - 7.776e+06 S[69]
   = 388809.0759999901
 R6_4_70: - H[4,69] + H[4,70] + 777600 Q[70] - 7.776e+06 S[70]
   = 388809.7759999931
 R6_4_72: - H[4,71] + H[4,72] + 777600 Q[72] - 7.776e+06 S[72]
   = 388810.5759999901
 R6_4_73: - H[4,72] + H[4,73] + 777600 Q[73] - 7.776e+06 S[73]
   = 388812.175999999
 R6_4_74: - H[4,73] + H[4,74] + 777600 Q[74] - 7.776e+06 S[74]
   = 388808.0759999901
 R6_4_75: - H[4,74] + H[4,75] + 777600 Q[75] - 7.776e+06 S[75]
   = 388808.2759999931
 R6_4_76: - H[4,75] + H[4,76] + 777600 Q[76] - 7.776e+06 S[76]
   = 388808.5759999901
 R6_4_77: - H[4,76] + H[4,77] + 777600 Q[77] - 7.776e+06 S[77]
   = 388807.9759999961
 R6_4_78: - H[4,77] + H[4,78] + 777600 Q[78] - 7.776e+06 S[78]
   = 388809.3759999871
 R6_4_79: - H[4,78] + H[4,79] + 777600 Q[79] - 7.776e+06 S[79]
   = 388808.3759999871
 R6_4_80: - H[4,79] + H[4,80] + 777600 Q[80] - 7.776e+06 S[80]
   = 388812.675999999
 R6_4_82: - H[4,81] + H[4,82] + 777600 Q[82] - 7.776e+06 S[82]
   = 388808.8759999871
 R6_4_83: - H[4,82] + H[4,83] + 777600 Q[83] - 7.776e+06 S[83]
   = 388810.675999999
 R6_4_85: - H[4,84] + H[4,85] + 777600 Q[85] - 7.776e+06 S[85]
   = 388807.9759999961
 R6_4_86: - H[4,85] + H[4,86] + 777600 Q[86] - 7.776e+06 S[86]
   = 388809.5759999901
 R6_4_87: - H[4,86] + H[4,87] + 777600 Q[87] - 7.776e+06 S[87]
   = 388809.675999999
 R6_4_88: - H[4,87] + H[4,88] + 777600 Q[88] - 7.776e+06 S[88]
   = 388810.675999999
 R6_4_92: - H[4,91] + H[4,92] + 777600 Q[92] - 7.776e+06 S[92]
   = 388811.5759999901
 R6_4_95: - H[4,94] + H[4,95] + 777600 Q[95] - 7.776e+06 S[95]
   = 388819.9759999961
 R6_4_96: - H[4,95] + H[4,96] + 777600 Q[96] - 7.776e+06 S[96]
   = 388812.4759999961
 R6_4_100: - H[4,99] + H[4,100] + 777600 Q[100] - 7.776e+06 S[100]
   = 388812.2759999931
 R6_4_101: - H[4,100] + H[4,101] + 777600 Q[101] - 7.776e+06 S[101]
   = 388810.2759999931
 R6_4_102: - H[4,101] + H[4,102] + 777600 Q[102] - 7.776e+06 S[102]
   = 388809.175999999
 R6_4_105: - H[4,104] + H[4,105] + 777600 Q[105] - 7.776e+06 S[105]
   = 388810.8759999871
 R6_4_107: - H[4,106] + H[4,107] + 777600 Q[107] - 7.776e+06 S[107]
   = 388813.0759999901
 R6_4_110: - H[4,109] + H[4,110] + 777600 Q[110] - 7.776e+06 S[110]
   = 388812.4759999961
 R6_4_112: - H[4,111] + H[4,112] + 777600 Q[112] - 7.776e+06 S[112]
   = 388813.4759999961
 R6_4_115: - H[4,114] + H[4,115] + 777600 Q[115] - 7.776e+06 S[115]
   = 388809.0759999901
 R6_4_116: - H[4,115] + H[4,116] + 777600 Q[116] - 7.776e+06 S[116]
   = 388808.2759999931
 R6_4_118: - H[4,117] + H[4,118] + 777600 Q[118] - 7.776e+06 S[118]
   = 388808.4759999961
 R6_4_119: - H[4,118] + H[4,119] + 777600 Q[119] - 7.776e+06 S[119]
   = 388808.9759999961
 R6_4_121: - H[4,120] + H[4,121] + 777600 Q[121] - 7.776e+06 S[121]
   = 388813.0759999901
 R6_4_122: - H[4,121] + H[4,122] + 777600 Q[122] - 7.776e+06 S[122]
   = 388809.175999999
 R6_4_124: - H[4,123] + H[4,124] + 777600 Q[124] - 7.776e+06 S[124]
   = 388819.4759999961
 R6_4_129: - H[4,128] + H[4,129] + 777600 Q[129] - 7.776e+06 S[129]
   = 388816.4759999961
 R6_4_130: - H[4,129] + H[4,130] + 777600 Q[130] - 7.776e+06 S[130]
   = 388809.9759999961
 R6_4_133: - H[4,132] + H[4,133] + 777600 Q[133] - 7.776e+06 S[133]
   = 388808.175999999
 R6_4_135: - H[4,134] + H[4,135] + 777600 Q[135] - 7.776e+06 S[135]
   = 388819.7759999931
 R6_4_136: - H[4,135] + H[4,136] + 777600 Q[136] - 7.776e+06 S[136]
   = 388810.175999999
 R6_4_140: - H[4,139] + H[4,140] + 777600 Q[140] - 7.776e+06 S[140]
   = 388813.675999999
 R6_4_142: - H[4,141] + H[4,142] + 777600 Q[142] - 7.776e+06 S[142]
   = 388812.2759999931
 R6_4_144: - H[4,143] + H[4,144] + 777600 Q[144] - 7.776e+06 S[144]
   = 388817.9759999961
 R6_4_145: - H[4,144] + H[4,145] + 777600 Q[145] - 7.776e+06 S[145]
   = 388810.8759999871
 R6_4_148: - H[4,147] + H[4,148] + 777600 Q[148] - 7.776e+06 S[148]
   = 388818.3759999871
 R6_4_149: - H[4,148] + H[4,149] + 777600 Q[149] - 7.776e+06 S[149]
   = 388830.4759999961
 R6_4_151: - H[4,150] + H[4,151] + 777600 Q[151] - 7.776e+06 S[151]
   = 388827.2759999931
 R6_4_152: - H[4,151] + H[4,152] + 777600 Q[152] - 7.776e+06 S[152]
   = 388811.2759999931
 R6_4_154: - H[4,153] + H[4,154] + 777600 Q[154] - 7.776e+06 S[154]
   = 388821.5759999901
 R6_4_156: - H[4,155] + H[4,156] + 777600 Q[156] - 7.776e+06 S[156]
   = 388808.175999999
 R6_4_157: - H[4,156] + H[4,157] + 777600 Q[157] - 7.776e+06 S[157]
   = 388809.3759999871
 R6_4_159: - H[4,158] + H[4,159] + 777600 Q[159] - 7.776e+06 S[159]
   = 388812.3759999871
 R6_4_160: - H[4,159] + H[4,160] + 777600 Q[160] - 7.776e+06 S[160]
   = 388818.0759999901
 R6_4_163: - H[4,162] + H[4,163] + 777600 Q[163] - 7.776e+06 S[163]
   = 388815.4759999961
 R6_4_165: - H[4,164] + H[4,165] + 777600 Q[165] - 7.776e+06 S[165]
   = 388827.4759999961
 R6_4_166: - H[4,165] + H[4,166] + 777600 Q[166] - 7.776e+06 S[166]
   = 388820.675999999
 R6_4_168: - H[4,167] + H[4,168] + 777600 Q[168] - 7.776e+06 S[168]
   = 388812.2759999931
 R6_4_169: - H[4,168] + H[4,169] + 777600 Q[169] - 7.776e+06 S[169]
   = 388816.4759999961
 R6_4_170: - H[4,169] + H[4,170] + 777600 Q[170] - 7.776e+06 S[170]
   = 388811.5759999901
 R6_4_171: - H[4,170] + H[4,171] + 777600 Q[171] - 7.776e+06 S[171]
   = 388812.8759999871
 R6_4_172: - H[4,171] + H[4,172] + 777600 Q[172] - 7.776e+06 S[172]
   = 388817.7759999931
 R6_4_173: - H[4,172] + H[4,173] + 777600 Q[173] - 7.776e+06 S[173]
   = 388819.675999999
 R6_4_179: - H[4,178] + H[4,179] + 777600 Q[179] - 7.776e+06 S[179]
   = 388812.4759999961
 R6_4_181: - H[4,180] + H[4,181] + 777600 Q[181] - 7.776e+06 S[181]
   = 388822.2759999931
 R6_4_182: - H[4,181] + H[4,182] + 777600 Q[182] - 7.776e+06 S[182]
   = 388813.175999999
 R6_4_183: - H[4,182] + H[4,183] + 777600 Q[183] - 7.776e+06 S[183]
   = 388821.4759999961
 R6_4_184: - H[4,183] + H[4,184] + 777600 Q[184] - 7.776e+06 S[184]
   = 388812.9759999961
 R6_4_185: - H[4,184] + H[4,185] + 777600 Q[185] - 7.776e+06 S[185]
   = 388811.3759999871
 R6_4_186: - H[4,185] + H[4,186] + 777600 Q[186] - 7.776e+06 S[186]
   = 388834.9759999961
 R6_4_187: - H[4,186] + H[4,187] + 777600 Q[187] - 7.776e+06 S[187]
   = 388823.675999999
 R6_4_189: - H[4,188] + H[4,189] + 777600 Q[189] - 7.776e+06 S[189]
   = 388809.4759999961
 R6_4_191: - H[4,190] + H[4,191] + 777600 Q[191] - 7.776e+06 S[191]
   = 388814.4759999961
 R6_4_192: - H[4,191] + H[4,192] + 777600 Q[192] - 7.776e+06 S[192]
   = 388812.7759999931
 R6_4_193: - H[4,192] + H[4,193] + 777600 Q[193] - 7.776e+06 S[193]
   = 388820.9759999961
 R6_4_194: - H[4,193] + H[4,194] + 777600 Q[194] - 7.776e+06 S[194]
   = 388819.175999999
 R6_4_195: - H[4,194] + H[4,195] + 777600 Q[195] - 7.776e+06 S[195]
   = 388827.175999999
 R6_4_198: - H[4,197] + H[4,198] + 777600 Q[198] - 7.776e+06 S[198]
   = 388824.675999999
 R6_4_200: - H[4,199] + H[4,200] + 777600 Q[200] - 7.776e+06 S[200]
   = 388811.175999999
 R6_4_201: - H[4,200] + H[4,201] + 777600 Q[201] - 7.776e+06 S[201]
   = 388827.175999999
 R6_4_203: - H[4,202] + H[4,203] + 777600 Q[203] - 7.776e+06 S[203]
   = 388812.7759999931
 R6_4_204: - H[4,203] + H[4,204] + 777600 Q[204] - 7.776e+06 S[204]
   = 388814.4759999961
 R6_4_205: - H[4,204] + H[4,205] + 777600 Q[205] - 7.776e+06 S[205]
   = 388826.0759999901
 R6_4_206: - H[4,205] + H[4,206] + 777600 Q[206] - 7.776e+06 S[206]
   = 388820.675999999
 R6_4_207: - H[4,206] + H[4,207] + 777600 Q[207] - 7.776e+06 S[207]
   = 388808.9759999961
 R6_4_208: - H[4,207] + H[4,208] + 777600 Q[208] - 7.776e+06 S[208]
   = 388810.4759999961
 R6_4_212: - H[4,211] + H[4,212] + 777600 Q[212] - 7.776e+06 S[212]
   = 388813.0759999901
 R6_4_214: - H[4,213] + H[4,214] + 777600 Q[214] - 7.776e+06 S[214]
   = 388827.3759999871
 R6_4_216: - H[4,215] + H[4,216] + 777600 Q[216] - 7.776e+06 S[216]
   = 388818.8759999871
 R6_4_218: - H[4,217] + H[4,218] + 777600 Q[218] - 7.776e+06 S[218]
   = 388808.7759999931
 R6_4_219: - H[4,218] + H[4,219] + 777600 Q[219] - 7.776e+06 S[219]
   = 388814.675999999
 R6_4_220: - H[4,219] + H[4,220] + 777600 Q[220] - 7.776e+06 S[220]
   = 388817.0759999901
 R6_4_221: - H[4,220] + H[4,221] + 777600 Q[221] - 7.776e+06 S[221]
   = 388823.2759999931
 R6_4_223: - H[4,222] + H[4,223] + 777600 Q[223] - 7.776e+06 S[223]
   = 388811.5759999901
 R6_4_227: - H[4,226] + H[4,227] + 777600 Q[227] - 7.776e+06 S[227]
   = 388814.175999999
 R6_4_230: - H[4,229] + H[4,230] + 777600 Q[230] - 7.776e+06 S[230]
   = 388823.675999999
 R6_4_231: - H[4,230] + H[4,231] + 777600 Q[231] - 7.776e+06 S[231]
   = 388814.3759999871
 R6_4_232: - H[4,231] + H[4,232] + 777600 Q[232] - 7.776e+06 S[232]
   = 388811.4759999961
 R6_4_233: - H[4,232] + H[4,233] + 777600 Q[233] - 7.776e+06 S[233]
   = 388808.7759999931
 R6_4_235: - H[4,234] + H[4,235] + 777600 Q[235] - 7.776e+06 S[235]
   = 388809.8759999871
 R6_4_238: - H[4,237] + H[4,238] + 777600 Q[238] - 7.776e+06 S[238]
   = 388823.9759999961
 R6_4_240: - H[4,239] + H[4,240] + 777600 Q[240] - 7.776e+06 S[240]
   = 388813.5759999901
 R6_4_242: - H[4,241] + H[4,242] + 777600 Q[242] - 7.776e+06 S[242]
   = 388818.0759999901
 R6_4_245: - H[4,244] + H[4,245] + 777600 Q[245] - 7.776e+06 S[245]
   = 388812.7759999931
 R6_4_246: - H[4,245] + H[4,246] + 777600 Q[246] - 7.776e+06 S[246]
   = 388807.8759999871
 R6_4_247: - H[4,246] + H[4,247] + 777600 Q[247] - 7.776e+06 S[247]
   = 388816.9759999961
 R6_4_251: - H[4,250] + H[4,251] + 777600 Q[251] - 7.776e+06 S[251]
   = 388811.8759999871
 R6_4_252: - H[4,251] + H[4,252] + 777600 Q[252] - 7.776e+06 S[252]
   = 388813.675999999
 R6_4_253: - H[4,252] + H[4,253] + 777600 Q[253] - 7.776e+06 S[253]
   = 388811.4759999961
 R6_4_255: - H[4,254] + H[4,255] + 777600 Q[255] - 7.776e+06 S[255]
   = 388808.9759999961
 R6_4_256: - H[4,255] + H[4,256] + 777600 Q[256] - 7.776e+06 S[256]
   = 388814.0759999901
 R6_4_257: - H[4,256] + H[4,257] + 777600 Q[257] - 7.776e+06 S[257]
   = 388825.8759999871
 R6_4_260: - H[4,259] + H[4,260] + 777600 Q[260] - 7.776e+06 S[260]
   = 388810.175999999
 R6_4_262: - H[4,261] + H[4,262] + 777600 Q[262] - 7.776e+06 S[262]
   = 388811.2759999931
 R6_4_263: - H[4,262] + H[4,263] + 777600 Q[263] - 7.776e+06 S[263]
   = 388811.5759999901
 R6_4_264: - H[4,263] + H[4,264] + 777600 Q[264] - 7.776e+06 S[264]
   = 388812.0759999901
 R6_4_265: - H[4,264] + H[4,265] + 777600 Q[265] - 7.776e+06 S[265]
   = 388816.175999999
 R6_4_266: - H[4,265] + H[4,266] + 777600 Q[266] - 7.776e+06 S[266]
   = 388809.9759999961
 R6_4_267: - H[4,266] + H[4,267] + 777600 Q[267] - 7.776e+06 S[267]
   = 388810.175999999
 R6_4_269: - H[4,268] + H[4,269] + 777600 Q[269] - 7.776e+06 S[269]
   = 388809.9759999961
 R6_4_272: - H[4,271] + H[4,272] + 777600 Q[272] - 7.776e+06 S[272]
   = 388809.175999999
 R6_4_274: - H[4,273] + H[4,274] + 777600 Q[274] - 7.776e+06 S[274]
   = 388810.4759999961
 R6_4_276: - H[4,275] + H[4,276] + 777600 Q[276] - 7.776e+06 S[276]
   = 388808.675999999
 R6_4_278: - H[4,277] + H[4,278] + 777600 Q[278] - 7.776e+06 S[278]
   = 388809.0759999901
 R6_4_279: - H[4,278] + H[4,279] + 777600 Q[279] - 7.776e+06 S[279]
   = 388810.8759999871
 R6_4_280: - H[4,279] + H[4,280] + 777600 Q[280] - 7.776e+06 S[280]
   = 388813.0759999901
 R6_4_282: - H[4,281] + H[4,282] + 777600 Q[282] - 7.776e+06 S[282]
   = 388810.2759999931
 R6_4_285: - H[4,284] + H[4,285] + 777600 Q[285] - 7.776e+06 S[285]
   = 388815.0759999901
 R6_4_290: - H[4,289] + H[4,290] + 777600 Q[290] - 7.776e+06 S[290]
   = 388809.0759999901
 R6_4_291: - H[4,290] + H[4,291] + 777600 Q[291] - 7.776e+06 S[291]
   = 388808.7759999931
 R6_4_294: - H[4,293] + H[4,294] + 777600 Q[294] - 7.776e+06 S[294]
   = 388811.2759999931
 R6_4_295: - H[4,294] + H[4,295] + 777600 Q[295] - 7.776e+06 S[295]
   = 388810.0759999901
 R6_4_299: - H[4,298] + H[4,299] + 777600 Q[299] - 7.776e+06 S[299]
   = 388816.2759999931
 R6_4_302: - H[4,301] + H[4,302] + 777600 Q[302] - 7.776e+06 S[302]
   = 388809.3759999871
 R6_4_306: - H[4,305] + H[4,306] + 777600 Q[306] - 7.776e+06 S[306]
   = 388808.8759999871
 R6_4_307: - H[4,306] + H[4,307] + 777600 Q[307] - 7.776e+06 S[307]
   = 388808.675999999
 R6_4_308: - H[4,307] + H[4,308] + 777600 Q[308] - 7.776e+06 S[308]
   = 388808.4759999961
 R6_4_311: - H[4,310] + H[4,311] + 777600 Q[311] - 7.776e+06 S[311]
   = 388814.7759999931
 R6_4_312: - H[4,311] + H[4,312] + 777600 Q[312] - 7.776e+06 S[312]
   = 388809.2759999931
 R6_4_314: - H[4,313] + H[4,314] + 777600 Q[314] - 7.776e+06 S[314]
   = 388809.7759999931
 R6_4_319: - H[4,318] + H[4,319] + 777600 Q[319] - 7.776e+06 S[319]
   = 388810.7759999931
 R6_4_322: - H[4,321] + H[4,322] + 777600 Q[322] - 7.776e+06 S[322]
   = 388808.3759999871
 R6_4_326: - H[4,325] + H[4,326] + 777600 Q[326] - 7.776e+06 S[326]
   = 388809.175999999
 R6_4_327: - H[4,326] + H[4,327] + 777600 Q[327] - 7.776e+06 S[327]
   = 388809.2759999931
 R6_4_328: - H[4,327] + H[4,328] + 777600 Q[328] - 7.776e+06 S[328]
   = 388809.8759999871
 R6_4_330: - H[4,329] + H[4,330] + 777600 Q[330] - 7.776e+06 S[330]
   = 388811.175999999
 R6_4_331: - H[4,330] + H[4,331] + 777600 Q[331] - 7.776e+06 S[331]
   = 388808.5759999901
 R6_4_332: - H[4,331] + H[4,332] + 777600 Q[332] - 7.776e+06 S[332]
   = 388809.5759999901
 R6_4_335: - H[4,334] + H[4,335] + 777600 Q[335] - 7.776e+06 S[335]
   = 388809.8759999871
 R6_4_342: - H[4,341] + H[4,342] + 777600 Q[342] - 7.776e+06 S[342]
   = 388809.2759999931
 R6_4_344: - H[4,343] + H[4,344] + 777600 Q[344] - 7.776e+06 S[344]
   = 388812.2759999931
 R6_4_345: - H[4,344] + H[4,345] + 777600 Q[345] - 7.776e+06 S[345]
   = 388810.5759999901
 R6_4_348: - H[4,347] + H[4,348] + 777600 Q[348] - 7.776e+06 S[348]
   = 388807.9759999961
 R6_4_350: - H[4,349] + H[4,350] + 777600 Q[350] - 7.776e+06 S[350]
   = 388808.5759999901
 R6_4_351: - H[4,350] + H[4,351] + 777600 Q[351] - 7.776e+06 S[351]
   = 388812.0759999901
 R6_4_353: - H[4,352] + H[4,353] + 777600 Q[353] - 7.776e+06 S[353]
   = 388809.5759999901
 R6_4_354: - H[4,353] + H[4,354] + 777600 Q[354] - 7.776e+06 S[354]
   = 388808.175999999
 R6_4_356: - H[4,355] + H[4,356] + 777600 Q[356] - 7.776e+06 S[356]
   = 388807.7759999931
 R6_4_357: - H[4,356] + H[4,357] + 777600 Q[357] - 7.776e+06 S[357]
   = 388809.7759999931
 R6_4_359: - H[4,358] + H[4,359] + 777600 Q[359] - 7.776e+06 S[359]
   = 388807.9759999961
 R6_4_360: - H[4,359] + H[4,360] + 777600 Q[360] - 7.776e+06 S[360]
   = 388808.4759999961
 R6_4_363: - H[4,362] + H[4,363] + 777600 Q[363] - 7.776e+06 S[363]
   = 388807.9759999961
 R9_65: - 777600 Q[65] + 7.776e+06 S[65] - A[64] + A[65] = 0
 R9_212: - 777600 Q[212] + 7.776e+06 S[212] - A[211] + A[212] = 0
 R9_287: - 777600 Q[287] + 7.776e+06 S[287] - A[286] + A[287] = 0
 R9_337: - 777600 Q[337] + 7.776e+06 S[337] - A[336] + A[337] = 0
 R10a_106: - 1e+14 S[106] + A[106] <= 4.5e+07
 R10a_274: - 1e+14 S[274] + A[274] <= 4.5e+07
Bounds
 H[0,10] free
 H[0,11] free
 H[0,47] free
 H[0,48] free
 H[0,52] free
 H[0,53] free
 H[0,55] free
 H[0,56] free
 H[0,63] free
 H[0,64] free
 H[0,65] free
 H[0,66] free
 H[0,67] free
 H[0,68] free
 H[0,77] free
 H[0,78] free
 H[0,79] free
 H[0,87] free
 H[0,88] free
 H[0,114] free
 H[0,115] free
 H[0,117] free
 H[0,118] free
 H[0,121] free
 H[0,122] free
 H[0,130] free
 H[0,131] free
 H[0,138] free
 H[0,139] free
 H[0,140] free
 H[0,142] free
 H[0,143] free
 H[0,149] free
 H[0,150] free
 H[0,151] free
 H[0,152] free
 H[0,157] free
 H[0,158] free
 H[0,161] free
 H[0,162] free
 H[0,219] free
 H[0,220] free
 H[0,225] free
 H[0,226] free
 H[0,247] free
 H[0,248] free
 H[0,255] free
 H[0,256] free
 H[0,264] free
 H[0,265] free
 H[0,277] free
 H[0,278] free
 H[0,282] free
 H[0,283] free
 H[0,294] free
 H[0,295] free
 H[0,298] free
 H[0,299] free
 H[0,311] free
 H[0,312] free
 H[0,342] free
 H[0,343] free
 H[1,35] free
 H[1,36] free
 H[1,45] free
 H[1,46] free
 H[1,61] free
 H[1,62] free
 H[1,76] free
 H[1,77] free
 H[1,86] free
 H[1,87] free
 H[1,101] free
 H[1,102] free
 H[1,179] free
 H[1,180] free
 H[1,201] free
 H[1,202] free
 H[1,203] free
 H[1,206] free
 H[1,207] free
 H[1,226] free
 H[1,227] free
 H[1,232] free
 H[1,233] free
 H[1,251] free
 H[1,252] free
 H[1,280] free
 H[1,281] free
 H[1,298] free
 H[1,299] free
 H[1,302] free
 H[1,303] free
 H[1,312] free
 H[1,313] free
 H[1,331] free
 H[1,332] free
 H[1,341] free
 H[1,342] free
 H[1,355] free
 H[1,356] free
 H[1,358] free
 H[1,359] free
 H[2,58] free
 H[2,59] free
 H[2,62] free
 H[2,63] free
 H[2,69] free
 H[2,70] free
 H[2,107] free
 H[2,108] free
 H[2,119] free
 H[2,120] free
 H[2,153] free
 H[2,154] free
 H[2,164] free
 H[2,165] free
 H[2,170] free
 H[2,171] free
 H[2,173] free
 H[2,174] free
 H[2,183] free
 H[2,184] free
 H[2,193] free
 H[2,194] free
 H[2,195] free
 H[2,196] free
 H[2,214] free
 H[2,215] free
 H[2,295] free
 H[2,296] free
 H[2,320] free
 H[2,321] free
 H[2,323] free
 H[2,324] free
 H[2,361] free
 H[2,362] free
 H[3,32] free
 H[3,33] free
 H[3,54] free
 H[3,55] free
 H[3,93] free
 H[3,94] free
 H[3,164] free
 H[3,165] free
 H[3,166] free
 H[3,167] free
 H[3,225] free
 H[3,226] free
 H[3,234] free
 H[3,235] free
 H[3,268] free
 H[3,269] free
 H[3,287] free
 H[3,288] free
 H[3,306] free
 H[3,307] free
 H[3,334] free
 H[3,335] free
 H[4,42] free
 H[4,43] free
 H[4,44] free
 H[4,45] free
 H[4,46] free
 H[4,47] free
 H[4,48] free
 H[4,49] free
 H[4,50] free
 H[4,51] free
 H[4,52] free
 H[4,53] free
 H[4,54] free
 H[4,55] free
 H[4,56] free
 H[4,57] free
 H[4,58] free
 H[4,59] free
 H[4,60] free
 H[4,61] free
 H[4,62] free
 H[4,67] free
 H[4,68] free
 H[4,69] free
 H[4,70] free
 H[4,71] free
 H[4,72] free
 H[4,73] free
 H[4,74] free
 H[4,75] free
 H[4,76] free
 H[4,77] free
 H[4,78] free
 H[4,79] free
 H[4,80] free
 H[4,81] free
 H[4,82] free
 H[4,83] free
 H[4,84] free
 H[4,85] free
 H[4,86] free
 H[4,87] free
 H[4,88] free
 H[4,91] free
 H[4,92] free
 H[4,94] free
 H[4,95] free
 H[4,96] free
 H[4,99] free
 H[4,100] free
 H[4,101] free
 H[4,102] free
 H[4,104] free
 H[4,105] free
 H[4,106] free
 H[4,107] free
 H[4,109] free
 H[4,110] free
 H[4,111] free
 H[4,112] free
 H[4,114] free
 H[4,115] free
 H[4,116] free
 H[4,117] free
 H[4,118] free
 H[4,119] free
 H[4,120] free
 H[4,121] free
 H[4,122] free
 H[4,123] free
 H[4,124] free
 H[4,128] free
 H[4,129] free
 H[4,130] free
 H[4,132] free
 H[4,133] free
 H[4,134] free
 H[4,135] free
 H[4,136] free
 H[4,139] free
 H[4,140] free
 H[4,141] free
 H[4,142] free
 H[4,143] free
 H[4,144] free
 H[4,145] free
 H[4,147] free
 H[4,148] free
 H[4,149] free
 H[4,150] free
 H[4,151] free
 H[4,152] free
 H[4,153] free
 H[4,154] free
 H[4,155] free
 H[4,156] free
 H[4,157] free
 H[4,158] free
 H[4,159] free
 H[4,160] free
 H[4,162] free
 H[4,163] free
 H[4,164] free
 H[4,165] free
 H[4,166] free
 H[4,167] free
 H[4,168] free
 H[4,169] free
 H[4,170] free
 H[4,171] free
 H[4,172] free
 H[4,173] free
 H[4,178] free
 H[4,179] free
 H[4,180] free
 H[4,181] free
 H[4,182] free
 H[4,183] free
 H[4,184] free
 H[4,185] free
 H[4,186] free
 H[4,187] free
 H[4,188] free
 H[4,189] free
 H[4,190] free
 H[4,191] free
 H[4,192] free
 H[4,193] free
 H[4,194] free
 H[4,195] free
 H[4,197] free
 H[4,198] free
 H[4,199] free
 H[4,200] free
 H[4,201] free
 H[4,202] free
 H[4,203] free
 H[4,204] free
 H[4,205] free
 H[4,206] free
 H[4,207] free
 H[4,208] free
 H[4,211] free
 H[4,212] free
 H[4,213] free
 H[4,214] free
 H[4,215] free
 H[4,216] free
 H[4,217] free
 H[4,218] free
 H[4,219] free
 H[4,220] free
 H[4,221] free
 H[4,222] free
 H[4,223] free
 H[4,226] free
 H[4,227] free
 H[4,229] free
 H[4,230] free
 H[4,231] free
 H[4,232] free
 H[4,233] free
 H[4,234] free
 H[4,235] free
 H[4,237] free
 H[4,238] free
 H[4,239] free
 H[4,240] free
 H[4,241] free
 H[4,242] free
 H[4,244] free
 H[4,245] free
 H[4,246] free
 H[4,247] free
 H[4,250] free
 H[4,251] free
 H[4,252] free
 H[4,253] free
 H[4,254] free
 H[4,255] free
 H[4,256] free
 H[4,257] free
 H[4,259] free
 H[4,260] free
 H[4,261] free
 H[4,262] free
 H[4,263] free
 H[4,264] free
 H[4,265] free
 H[4,266] free
 H[4,267] free
 H[4,268] free
 H[4,269] free
 H[4,271] free
 H[4,272] free
 H[4,273] free
 H[4,274] free
 H[4,275] free
 H[4,276] free
 H[4,277] free
 H[4,278] free
 H[4,279] free
 H[4,280] free
 H[4,281] free
 H[4,282] free
 H[4,284] free
 H[4,285] free
 H[4,289] free
 H[4,290] free
 H[4,291] free
 H[4,293] free
 H[4,294] free
 H[4,295] free
 H[4,298] free
 H[4,299] free
 H[4,301] free
 H[4,302] free
 H[4,305] free
 H[4,306] free
 H[4,307] free
 H[4,308] free
 H[4,310] free
 H[4,311] free
 H[4,312] free
 H[4,313] free
 H[4,314] free
 H[4,318] free
 H[4,319] free
 H[4,321] free
 H[4,322] free
 H[4,325] free
 H[4,326] free
 H[4,327] free
 H[4,328] free
 H[4,329] free
 H[4,330] free
 H[4,331] free
 H[4,332] free
 H[4,334] free
 H[4,335] free
 H[4,341] free
 H[4,342] free
 H[4,343] free
 H[4,344] free
 H[4,345] free
 H[4,347] free
 H[4,348] free
 H[4,349] free
 H[4,350] free
 H[4,351] free
 H[4,352] free
 H[4,353] free
 H[4,354] free
 H[4,355] free
 H[4,356] free
 H[4,357] free
 H[4,358] free
 H[4,359] free
 H[4,360] free
 H[4,362] free
 H[4,363] free
 A[64] free
 A[65] free
 A[106] free
 A[211] free
 A[212] free
 A[274] free
 A[286] free
 A[287] free
 A[336] free
 A[337] free
Binaries
 Q[11] Q[33] Q[36] Q[43] Q[44] Q[45] Q[46] Q[47] Q[48] Q[49] Q[50] Q[52]
 Q[53] Q[54] Q[55] Q[56] Q[58] Q[59] Q[61] Q[62] Q[63] Q[64] Q[65] Q[67]
 Q[68] Q[69] Q[70] Q[72] Q[73] Q[74] Q[75] Q[76] Q[77] Q[78] Q[79] Q[80]
 Q[82] Q[83] Q[85] Q[86] Q[87] Q[88] Q[92] Q[94] Q[95] Q[96] Q[100] Q[101]
 Q[102] Q[105] Q[107] Q[108] Q[110] Q[112] Q[115] Q[116] Q[118] Q[119]
 Q[120] Q[121] Q[122] Q[124] Q[129] Q[130] Q[131] Q[133] Q[135] Q[136]
 Q[139] Q[140] Q[142] Q[143] Q[144] Q[145] Q[148] Q[149] Q[150] Q[151]
 Q[152] Q[154] Q[156] Q[157] Q[158] Q[159] Q[160] Q[162] Q[163] Q[165]
 Q[166] Q[167] Q[168] Q[169] Q[170] Q[171] Q[172] Q[173] Q[174] Q[179]
 Q[180] Q[181] Q[182] Q[183] Q[184] Q[185] Q[186] Q[187] Q[189] Q[191]
 Q[192] Q[193] Q[194] Q[195] Q[196] Q[198] Q[200] Q[201] Q[202] Q[203]
 Q[204] Q[205] Q[206] Q[207] Q[208] Q[212] Q[214] Q[215] Q[216] Q[218]
 Q[219] Q[220] Q[221] Q[223] Q[226] Q[227] Q[230] Q[231] Q[232] Q[233]
 Q[235] Q[238] Q[240] Q[242] Q[245] Q[246] Q[247] Q[248] Q[251] Q[252]
 Q[253] Q[255] Q[256] Q[257] Q[260] Q[262] Q[263] Q[264] Q[265] Q[266]
 Q[267] Q[269] Q[272] Q[274] Q[276] Q[278] Q[279] Q[280] Q[281] Q[282]
 Q[283] Q[285] Q[287] Q[288] Q[290] Q[291] Q[294] Q[295] Q[296] Q[299]
 Q[302] Q[303] Q[306] Q[307] Q[308] Q[311] Q[312] Q[313] Q[314] Q[319]
 Q[321] Q[322] Q[324] Q[326] Q[327] Q[328] Q[330] Q[331] Q[332] Q[335]
 Q[337] Q[342] Q[343] Q[344] Q[345] Q[348] Q[350] Q[351] Q[353] Q[354]
 Q[356] Q[357] Q[359] Q[360] Q[362] Q[363] S[11] S[33] S[36] S[43] S[44]
 S[45] S[46] S[47] S[48] S[49] S[50] S[52] S[53] S[54] S[55] S[56] S[58]
 S[59] S[61] S[62] S[63] S[64] S[65] S[67] S[68] S[69] S[70] S[72] S[73]
 S[74] S[75] S[76] S[77] S[78] S[79] S[80] S[82] S[83] S[85] S[86] S[87]
 S[88] S[92] S[94] S[95] S[96] S[100] S[101] S[102] S[105] S[106] S[107]
 S[108] S[110] S[112] S[115] S[116] S[118] S[119] S[120] S[121] S[122]
 S[124] S[129] S[130] S[131] S[133] S[135] S[136] S[139] S[140] S[142]
 S[143] S[144] S[145] S[148] S[149] S[150] S[151] S[152] S[154] S[156]
 S[157] S[158] S[159] S[160] S[162] S[163] S[165] S[166] S[167] S[168]
 S[169] S[170] S[171] S[172] S[173] S[174] S[179] S[180] S[181] S[182]
 S[183] S[184] S[185] S[186] S[187] S[189] S[191] S[192] S[193] S[194]
 S[195] S[196] S[198] S[200] S[201] S[202] S[203] S[204] S[205] S[206]
 S[207] S[208] S[212] S[214] S[215] S[216] S[218] S[219] S[220] S[221]
 S[223] S[226] S[227] S[230] S[231] S[232] S[233] S[235] S[238] S[240]
 S[242] S[245] S[246] S[247] S[248] S[251] S[252] S[253] S[255] S[256]
 S[257] S[260] S[262] S[263] S[264] S[265] S[266] S[267] S[269] S[272]
 S[274] S[276] S[278] S[279] S[280] S[281] S[282] S[283] S[285] S[287]
 S[288] S[290] S[291] S[294] S[295] S[296] S[299] S[302] S[303] S[306]
 S[307] S[308] S[311] S[312] S[313] S[314] S[319] S[321] S[322] S[324]
 S[326] S[327] S[328] S[330] S[331] S[332] S[335] S[337] S[342] S[343]
 S[344] S[345] S[348] S[350] S[351] S[353] S[354] S[356] S[357] S[359]
 S[360] S[362] S[363]
End
